; output/00000419.smt: generated with canalyze.
; $2 Assumption: false
(declare-const $2 Int)
(assert (and (< (- 9223372036854775808) $2) (< $2 9223372036854775807)))
(assert (= $2 0))
; $0 Assumption: true
(declare-const $0 Int)
(assert (and (< (- 9223372036854775808) $0) (< $0 9223372036854775807)))
(assert (not (= $0 0)))
(check-sat)
